# Solution for model JobShopModel
# Objective value = 19
y[0,0,3] 1
y[0,0,5] 0
y[0,0,6] 0
y[0,1,0] 0
y[0,1,2] 0
y[0,1,4] 1
y[0,2,2] 0
y[0,2,3] 0
y[0,2,6] 1
y[1,0,2] 0
y[1,0,3] 0
y[1,0,4] 1
y[1,1,1] 1
y[1,1,4] 0
y[1,1,6] 0
y[1,2,0] 1
y[1,2,1] 0
y[1,2,2] 0
y[2,0,2] 1
y[2,0,4] 0
y[2,0,6] 0
y[2,1,1] 1
y[2,1,4] 0
y[2,1,5] 0
y[2,2,0] 0
y[2,2,2] 1
y[2,2,5] 0
y[3,0,2] 0
y[3,0,5] 1
y[3,0,6] 0
y[3,1,0] 0
y[3,1,3] 1
y[3,1,4] 0
y[3,2,2] 1
y[3,2,3] 0
y[3,2,6] 0
y[4,0,1] 0
y[4,0,4] 0
y[4,0,5] 1
y[4,1,3] 0
y[4,1,4] 1
y[4,1,5] 0
y[4,2,2] 0
y[4,2,4] 0
y[4,2,6] 1
y[5,0,0] 1
y[5,0,4] 0
y[5,0,6] 0
y[5,1,0] 0
y[5,1,3] 0
y[5,1,5] 1
y[5,2,0] 1
y[5,2,5] 0
y[5,2,6] 0
x[0,0,0,0] 0
x[0,0,0,1] 0
x[0,0,0,2] 1
x[0,0,1,0] 0
x[0,0,1,1] 1
x[0,0,1,2] 0
x[0,0,2,0] 0
x[0,0,2,1] 0
x[0,0,2,2] 1
x[0,0,3,0] 1
x[0,0,3,1] 1
x[0,0,3,2] 1
x[0,0,4,0] 1
x[0,0,4,1] 1
x[0,0,4,2] 0
x[0,0,5,0] 0
x[0,0,5,1] 1
x[0,0,5,2] 1
x[0,1,0,0] 0
x[0,1,0,1] 0
x[0,1,0,2] 0
x[0,1,1,0] 0
x[0,1,1,1] 1
x[0,1,1,2] 0
x[0,1,2,0] 0
x[0,1,2,1] 1
x[0,1,2,2] 0
x[0,1,3,0] 0
x[0,1,3,1] 0
x[0,1,3,2] 1
x[0,1,4,0] 0
x[0,1,4,1] 1
x[0,1,4,2] 0
x[0,1,5,0] 0
x[0,1,5,1] 0
x[0,1,5,2] 1
x[0,2,0,0] 0
x[0,2,0,1] 1
x[0,2,0,2] 0
x[0,2,1,0] 1
x[0,2,1,1] 1
x[0,2,1,2] 1
x[0,2,2,0] 1
x[0,2,2,1] 0
x[0,2,2,2] 0
x[0,2,3,0] 1
x[0,2,3,1] 0
x[0,2,3,2] 0
x[0,2,4,0] 0
x[0,2,4,1] 1
x[0,2,4,2] 0
x[0,2,5,0] 0
x[0,2,5,1] 0
x[0,2,5,2] 0
x[1,0,0,0] 0
x[1,0,0,1] 0
x[1,0,0,2] 0
x[1,0,1,0] 0
x[1,0,1,1] 1
x[1,0,1,2] 0
x[1,0,2,0] 1
x[1,0,2,1] 1
x[1,0,2,2] 0
x[1,0,3,0] 1
x[1,0,3,1] 0
x[1,0,3,2] 1
x[1,0,4,0] 0
x[1,0,4,1] 1
x[1,0,4,2] 0
x[1,0,5,0] 1
x[1,0,5,1] 1
x[1,0,5,2] 0
x[1,1,0,0] 0
x[1,1,0,1] 0
x[1,1,0,2] 0
x[1,1,1,0] 0
x[1,1,1,1] 0
x[1,1,1,2] 0
x[1,1,2,0] 1
x[1,1,2,1] 1
x[1,1,2,2] 0
x[1,1,3,0] 0
x[1,1,3,1] 0
x[1,1,3,2] 1
x[1,1,4,0] 0
x[1,1,4,1] 1
x[1,1,4,2] 1
x[1,1,5,0] 0
x[1,1,5,1] 0
x[1,1,5,2] 1
x[1,2,0,0] 0
x[1,2,0,1] 0
x[1,2,0,2] 0
x[1,2,1,0] 1
x[1,2,1,1] 1
x[1,2,1,2] 0
x[1,2,2,0] 1
x[1,2,2,1] 0
x[1,2,2,2] 1
x[1,2,3,0] 1
x[1,2,3,1] 0
x[1,2,3,2] 0
x[1,2,4,0] 1
x[1,2,4,1] 0
x[1,2,4,2] 0
x[1,2,5,0] 1
x[1,2,5,1] 1
x[1,2,5,2] 1
x[2,0,0,0] 0
x[2,0,0,1] 0
x[2,0,0,2] 0
x[2,0,1,0] 0
x[2,0,1,1] 0
x[2,0,1,2] 0
x[2,0,2,0] 0
x[2,0,2,1] 1
x[2,0,2,2] 1
x[2,0,3,0] 0
x[2,0,3,1] 1
x[2,0,3,2] 1
x[2,0,4,0] 0
x[2,0,4,1] 1
x[2,0,4,2] 0
x[2,0,5,0] 0
x[2,0,5,1] 0
x[2,0,5,2] 1
x[2,1,0,0] 0
x[2,1,0,1] 0
x[2,1,0,2] 0
x[2,1,1,0] 0
x[2,1,1,1] 0
x[2,1,1,2] 0
x[2,1,2,0] 0
x[2,1,2,1] 0
x[2,1,2,2] 0
x[2,1,3,0] 0
x[2,1,3,1] 0
x[2,1,3,2] 0
x[2,1,4,0] 0
x[2,1,4,1] 1
x[2,1,4,2] 0
x[2,1,5,0] 0
x[2,1,5,1] 1
x[2,1,5,2] 1
x[2,2,0,0] 0
x[2,2,0,1] 0
x[2,2,0,2] 0
x[2,2,1,0] 0
x[2,2,1,1] 0
x[2,2,1,2] 0
x[2,2,2,0] 0
x[2,2,2,1] 1
x[2,2,2,2] 0
x[2,2,3,0] 1
x[2,2,3,1] 0
x[2,2,3,2] 1
x[2,2,4,0] 0
x[2,2,4,1] 1
x[2,2,4,2] 1
x[2,2,5,0] 1
x[2,2,5,1] 1
x[2,2,5,2] 1
x[3,0,0,0] 0
x[3,0,0,1] 0
x[3,0,0,2] 0
x[3,0,1,0] 0
x[3,0,1,1] 0
x[3,0,1,2] 0
x[3,0,2,0] 0
x[3,0,2,1] 0
x[3,0,2,2] 0
x[3,0,3,0] 0
x[3,0,3,1] 0
x[3,0,3,2] 0
x[3,0,4,0] 0
x[3,0,4,1] 0
x[3,0,4,2] 0
x[3,0,5,0] 1
x[3,0,5,1] 1
x[3,0,5,2] 1
x[3,1,0,0] 0
x[3,1,0,1] 0
x[3,1,0,2] 0
x[3,1,1,0] 0
x[3,1,1,1] 0
x[3,1,1,2] 0
x[3,1,2,0] 0
x[3,1,2,1] 0
x[3,1,2,2] 0
x[3,1,3,0] 0
x[3,1,3,1] 0
x[3,1,3,2] 0
x[3,1,4,0] 0
x[3,1,4,1] 1
x[3,1,4,2] 1
x[3,1,5,0] 0
x[3,1,5,1] 1
x[3,1,5,2] 1
x[3,2,0,0] 0
x[3,2,0,1] 0
x[3,2,0,2] 0
x[3,2,1,0] 0
x[3,2,1,1] 0
x[3,2,1,2] 0
x[3,2,2,0] 0
x[3,2,2,1] 0
x[3,2,2,2] 0
x[3,2,3,0] 1
x[3,2,3,1] 1
x[3,2,3,2] 0
x[3,2,4,0] 0
x[3,2,4,1] 1
x[3,2,4,2] 0
x[3,2,5,0] 0
x[3,2,5,1] 0
x[3,2,5,2] 1
x[4,0,0,0] 0
x[4,0,0,1] 0
x[4,0,0,2] 0
x[4,0,1,0] 0
x[4,0,1,1] 0
x[4,0,1,2] 0
x[4,0,2,0] 0
x[4,0,2,1] 0
x[4,0,2,2] 0
x[4,0,3,0] 0
x[4,0,3,1] 0
x[4,0,3,2] 0
x[4,0,4,0] 0
x[4,0,4,1] 1
x[4,0,4,2] 1
x[4,0,5,0] 1
x[4,0,5,1] 1
x[4,0,5,2] 1
x[4,1,0,0] 0
x[4,1,0,1] 0
x[4,1,0,2] 0
x[4,1,1,0] 0
x[4,1,1,1] 0
x[4,1,1,2] 0
x[4,1,2,0] 0
x[4,1,2,1] 0
x[4,1,2,2] 0
x[4,1,3,0] 0
x[4,1,3,1] 0
x[4,1,3,2] 0
x[4,1,4,0] 0
x[4,1,4,1] 0
x[4,1,4,2] 0
x[4,1,5,0] 0
x[4,1,5,1] 0
x[4,1,5,2] 0
x[4,2,0,0] 0
x[4,2,0,1] 0
x[4,2,0,2] 0
x[4,2,1,0] 0
x[4,2,1,1] 0
x[4,2,1,2] 0
x[4,2,2,0] 0
x[4,2,2,1] 0
x[4,2,2,2] 0
x[4,2,3,0] 0
x[4,2,3,1] 0
x[4,2,3,2] 0
x[4,2,4,0] 0
x[4,2,4,1] 1
x[4,2,4,2] 0
x[4,2,5,0] 0
x[4,2,5,1] 0
x[4,2,5,2] 1
x[5,0,0,0] 0
x[5,0,0,1] 0
x[5,0,0,2] 0
x[5,0,1,0] 0
x[5,0,1,1] 0
x[5,0,1,2] 0
x[5,0,2,0] 0
x[5,0,2,1] 0
x[5,0,2,2] 0
x[5,0,3,0] 0
x[5,0,3,1] 0
x[5,0,3,2] 0
x[5,0,4,0] 0
x[5,0,4,1] 0
x[5,0,4,2] 0
x[5,0,5,0] 0
x[5,0,5,1] 0
x[5,0,5,2] 1
x[5,1,0,0] 0
x[5,1,0,1] 0
x[5,1,0,2] 0
x[5,1,1,0] 0
x[5,1,1,1] 0
x[5,1,1,2] 0
x[5,1,2,0] 0
x[5,1,2,1] 0
x[5,1,2,2] 0
x[5,1,3,0] 0
x[5,1,3,1] 0
x[5,1,3,2] 0
x[5,1,4,0] 0
x[5,1,4,1] 0
x[5,1,4,2] 0
x[5,1,5,0] 1
x[5,1,5,1] 0
x[5,1,5,2] 1
x[5,2,0,0] 0
x[5,2,0,1] 0
x[5,2,0,2] 0
x[5,2,1,0] 0
x[5,2,1,1] 0
x[5,2,1,2] 0
x[5,2,2,0] 0
x[5,2,2,1] 0
x[5,2,2,2] 0
x[5,2,3,0] 0
x[5,2,3,1] 0
x[5,2,3,2] 0
x[5,2,4,0] 0
x[5,2,4,1] 0
x[5,2,4,2] 0
x[5,2,5,0] 0
x[5,2,5,1] 0
x[5,2,5,2] 0
s[0,0,3] 1.0000000000000899e+01
s[0,0,5] 0
s[0,0,6] 0
s[0,1,0] 0
s[0,1,2] 0
s[0,1,4] 7.0000000000018536e+00
s[0,2,2] 0
s[0,2,3] 0
s[0,2,6] 0
s[1,0,2] 0
s[1,0,3] 0
s[1,0,4] 2.2999999999998820e+01
s[1,1,1] 15
s[1,1,4] 0
s[1,1,6] 0
s[1,2,0] 2.0999999999999623e+01
s[1,2,1] 0
s[1,2,2] 0
s[2,0,2] 1.2000000000002048e+01
s[2,0,4] 0
s[2,0,6] 0
s[2,1,1] 0
s[2,1,4] 0
s[2,1,5] 0
s[2,2,0] 0
s[2,2,2] 5.0000000000020179e+00
s[2,2,5] 0
s[3,0,2] 0
s[3,0,5] 6.0000000000025331e+00
s[3,0,6] 0
s[3,1,0] 0
s[3,1,3] 3.0000000000027862e+00
s[3,1,4] 0
s[3,2,2] 1.0000000000027873e+00
s[3,2,3] 0
s[3,2,6] 0
s[4,0,1] 0
s[4,0,4] 0
s[4,0,5] 1.3000000000003830e+01
s[4,1,3] 0
s[4,1,4] 1.8539637393611875e-12
s[4,1,5] 0
s[4,2,2] 0
s[4,2,4] 0
s[4,2,6] 7
s[5,0,0] 1.0999999999999698e+01
s[5,0,4] 0
s[5,0,6] 0
s[5,1,0] 0
s[5,1,3] 0
s[5,1,5] 3.05848435058226e-12
s[5,2,0] 1.1515502664126978e-12
s[5,2,5] 0
s[5,2,6] 0
Z_FO 19
C433 1
C434 0
C435 0
C436 0
C437 0
C438 1
C439 1
C440 0
C441 0
C442 0
C443 1
C444 0
C445 0
C446 0
C447 1
C448 1
C449 0
C450 0
